40
    48    43    58    92    38    28    83     7    39    25    96    37    25    17    71    78    94    38    59    30    75    76    88    95    22    72    67    76    21    21    82    84    84    70    95    29    51    20    49    26
     3     4     4     6     8     2     5     2     9     5    10     2     1     8     5     4     2     1     2    10     4     3     5    10     1     6     3     7     2     9     6     3     8     6     9     3     6     9     1     2
   786   140   199   360   561   183   810   489   856    46   765   378   333   798   428    72   870   468   631   702   416   854   171   480   411   655   793   850   408   521   278   722   195   597    71   861   595   276   134   768
